40	100	100	100
1	1	6
5	9	9
1	7	4
5	5	3
4	5	5
8	7	5
9	4	2
1	5	6
6	8	6
2	5	6
3	3	6
2	5	5
6	7	1
1	2	2
3	8	3
7	4	9
1	9	8
3	8	2
4	3	1
4	8	9
9	7	4
8	3	8
5	8	6
4	2	8
5	5	8
7	9	4
2	9	3
7	6	2
8	7	9
1	5	5
7	5	4
1	4	7
1	3	7
2	2	1
1	6	9
9	3	9
1	9	8
1	8	4
9	9	2
1	4	2
